
--- Job wqt_scenario_16x3.gms Start 04/20/13 19:57:19 WEX-WEI 23.7.3 x86_64/MS Windows     
GAMS Rev 237  Copyright (C) 1987-2011 GAMS Development. All rights reserved
Licensee: Gary Goldstein                                 G010614:2121CA-WIN
          Decision Ware, Inc.                                        DC2807
--- Starting compilation
--- wqt_scenario_16x3.gms(6) 2 Mb
--- .wqt_model_relax.gms(66) 2 Mb
--- wqt_scenario_16x3.gms(190) 3 Mb
--- .wqt_solve_relax.gms(26) 3 Mb
--- wqt_scenario_16x3.gms(190) 3 Mb
--- Starting execution: elapsed 0:00:00.005
--- wqt_scenario_16x3.gms(262) 4 Mb
--- Generating LP model min_wqt
--- wqt_scenario_16x3.gms(263) 8 Mb
---   5,635 rows  5,265 columns  34,241 non-zeroes
--- Executing CPLEX: elapsed 0:00:00.059

IBM ILOG CPLEX   Jul 14, 2011 23.7.3 WEX 27723.27726 WEI x86_64/MS Windows
--- GAMS/Cplex licensed for continuous and discrete problems.
Cplex 12.3.0.0

Reading data...
Starting Cplex...
Tried aggregator 1 time.
LP Presolve eliminated 501 rows and 1633 columns.
Aggregator did 4 substitutions.
Reduced LP has 5130 rows, 3628 columns, and 27374 nonzeros.
Presolve time =    0.02 sec.
Initializing dual steep norms . . .

Iteration log . . .
Iteration:     1   Dual objective     =         85414.303900
Iteration:   285   Dual objective     =        607186.907800
LP status(1): optimal

Optimal solution found.
Objective :      607186.907800

--- Restarting execution
--- wqt_scenario_16x3.gms(263) 2 Mb
--- Reading solution for model min_wqt
--- wqt_scenario_16x3.gms(263) 3 Mb
--- Executing after solve: elapsed 0:00:00.277
--- wqt_scenario_16x3.gms(282) 3 Mb
--- Putfile salida_starting_time C:\Users\Santiago\Desktop\gams-opi\wqt_starting_time_relax.txt
--- Putfile salida_assignment_m C:\Users\Santiago\Desktop\gams-opi\wqt_assignment_m_relax.txt
*** Status: Normal completion
--- Job wqt_scenario_16x3.gms Stop 04/20/13 19:57:19 elapsed 0:00:00.279
